TCS_Benchmarks/redos_fix/regexlib2_output_distinct_2785_2784_57_0.smt2
(set-logic QF_S)
(declare-const x String)
(assert (str.in.re x (re.inter  (re.++ (re.+  (re.union (re.range "\u{61}" "\u{7a}") (re.union (re.range "\u{30}" "\u{39}") (re.range "\u{41}" "\u{5a}"))) ) (re.+  (re.union (re.range "\u{61}" "\u{7a}") (re.union (re.range "\u{30}" "\u{39}")  (re.union (re.range "\u{41}" "\u{5a}") (re.union (re.range "\u{61}" "\u{7a}") (re.union (re.range "\u{30}" "\u{39}") (re.union  (re.++  (re.union  (str.to.re "\u{25}") (re.union  (str.to.re "\u{26}") (re.union  (str.to.re "\u{27}") (re.union  (str.to.re "\u{2b}") (re.union  (str.to.re "\u{2d}") (re.union  (str.to.re "\u{40}") (re.union  (str.to.re "\u{5f}") (re.union  (str.to.re "\u{2e}")  (str.to.re "\u{20}"))))))))) (re.comp  (re.union  (str.to.re "\u{40}") (re.union  (str.to.re "\u{2d}") (re.union  (str.to.re "\u{2e}") (re.union  (str.to.re "\u{20}") (re.union  (str.to.re "\u{25}") (re.union  (str.to.re "\u{26}") (re.union  (str.to.re "\u{27}") (re.union  (str.to.re "\u{2b}")  (str.to.re "\u{5f}"))))))))))) (re.union  (str.to.re "\u{2e}")  (re.union  (re.++  (re.union  (str.to.re "\u{40}") (re.union  (str.to.re "\u{2d}") (re.union  (str.to.re "\u{2e}") (re.union  (str.to.re "\u{25}") (re.union  (str.to.re "\u{26}") (re.union  (str.to.re "\u{27}") (re.union  (str.to.re "\u{2b}")  (str.to.re "\u{5f}")))))))) (re.++  (str.to.re "\u{20}") (re.comp  (str.to.re "\u{20}"))))  (re.++  (str.to.re "\u{20}") (re.++  (re.union  (str.to.re "\u{40}") (re.union  (str.to.re "\u{2d}") (re.union  (str.to.re "\u{2e}") (re.union  (str.to.re "\u{25}") (re.union  (str.to.re "\u{26}") (re.union  (str.to.re "\u{27}") (re.union  (str.to.re "\u{2b}")  (str.to.re "\u{5f}")))))))) (re.comp  (re.union  (str.to.re "\u{40}") (re.union  (str.to.re "\u{2d}") (re.union  (str.to.re "\u{2e}") (re.union  (str.to.re "\u{25}") (re.union  (str.to.re "\u{26}") (re.union  (str.to.re "\u{27}") (re.union  (str.to.re "\u{2b}")  (str.to.re "\u{5f}"))))))))))))))))))) )) (re.+  (re.union (re.range "\u{61}" "\u{7a}") (re.union (re.range "\u{30}" "\u{39}")  (re.union (re.range "\u{41}" "\u{5a}") (re.union (re.range "\u{61}" "\u{7a}") (re.union (re.range "\u{30}" "\u{39}") (re.union  (re.++  (re.union  (str.to.re "\u{25}") (re.union  (str.to.re "\u{26}") (re.union  (str.to.re "\u{27}") (re.union  (str.to.re "\u{2b}") (re.union  (str.to.re "\u{2d}") (re.union  (str.to.re "\u{40}") (re.union  (str.to.re "\u{5f}") (re.union  (str.to.re "\u{2e}")  (str.to.re "\u{20}"))))))))) (re.comp  (re.union  (str.to.re "\u{40}") (re.union  (str.to.re "\u{2d}") (re.union  (str.to.re "\u{2e}") (re.union  (str.to.re "\u{20}") (re.union  (str.to.re "\u{25}") (re.union  (str.to.re "\u{26}") (re.union  (str.to.re "\u{27}") (re.union  (str.to.re "\u{2b}")  (str.to.re "\u{5f}"))))))))))) (re.union  (str.to.re "\u{2e}")  (re.union  (re.++  (re.union  (str.to.re "\u{40}") (re.union  (str.to.re "\u{2d}") (re.union  (str.to.re "\u{2e}") (re.union  (str.to.re "\u{25}") (re.union  (str.to.re "\u{26}") (re.union  (str.to.re "\u{27}") (re.union  (str.to.re "\u{2b}")  (str.to.re "\u{5f}")))))))) (re.++  (str.to.re "\u{20}") (re.comp  (str.to.re "\u{20}"))))  (re.++  (str.to.re "\u{20}") (re.++  (re.union  (str.to.re "\u{40}") (re.union  (str.to.re "\u{2d}") (re.union  (str.to.re "\u{2e}") (re.union  (str.to.re "\u{25}") (re.union  (str.to.re "\u{26}") (re.union  (str.to.re "\u{27}") (re.union  (str.to.re "\u{2b}")  (str.to.re "\u{5f}")))))))) (re.comp  (re.union  (str.to.re "\u{40}") (re.union  (str.to.re "\u{2d}") (re.union  (str.to.re "\u{2e}") (re.union  (str.to.re "\u{25}") (re.union  (str.to.re "\u{26}") (re.union  (str.to.re "\u{27}") (re.union  (str.to.re "\u{2b}")  (str.to.re "\u{5f}"))))))))))))))))))) )  (re.++  (str.to.re "\u{41}") (re.* (re.union (re.range "\u{00}" "\u{09}") (re.range "\u{0b}" "\u{0c}") (re.range "\u{0e}" "\u{84}") (re.range "\u{86}" "\u{ff}")) )) )))
(check-sat)
(get-model)