TCS_Benchmarks/redos_fix/regexlib2_output_distinct_2785_2784_57_0.txt
([a-z]|[0-9]|[A-Z])+([a-z]|[0-9]|([A-Z]|[a-z]|[0-9]|(%|&|'|\+|\-|@|_|\.|\ )[^@\-\.\ %&'\+_]|\.|([@\-\.%&'\+_]\ [^\ ]|\ [@\-\.%&'\+_][^@\-\.%&'\+_])))+
([a-z]|[0-9]|([A-Z]|[a-z]|[0-9]|(%|&|'|\+|\-|@|_|\.|\ )[^@\-\.\ %&'\+_]|\.|([@\-\.%&'\+_]\ [^\ ]|\ [@\-\.%&'\+_][^@\-\.%&'\+_])))+
A.*